(set-logic LRA)

(assert-synth (
    (x0 Real)
    (x1 Real)
    (x2 Real)
    (x3 Real)
    (x4 Real)
    (x5 Real)
    (x6 Real)
    (x7 Real)
    (x8 Real)
    (x9 Real)
    (x10 Real)
    (x11 Real)
    (x12 Real)
    (x13 Real)
    (x14 Real)
    (x15 Real)
    (x16 Real)
    (x17 Real)
    (x18 Real)
    (x19 Real)
    (x20 Real)
    (x21 Real)
    (x22 Real)
    (x23 Real)
    (x24 Real)
    (x25 Real)
    (x26 Real)
    (x27 Real)
    (x28 Real)
    (x29 Real)
    (x30 Real)
    (x31 Real)
    (x32 Real)
    (x33 Real)
    (x34 Real)
    (x35 Real)
    (x36 Real)
    (x37 Real)
    (x38 Real)
    (x39 Real)
    (x40 Real)
    (x41 Real)
    (x42 Real)
    (x43 Real)
    (x44 Real)
    (x45 Real)
    (x46 Real)
    (x47 Real)
    (x48 Real)
    (x49 Real)
    (x50 Real)
    (x51 Real)
    (x52 Real)
    (x53 Real)
    (x54 Real)
    (x55 Real)
    (x56 Real)
    (x57 Real)
    (x58 Real)
    (x59 Real)
    (x60 Real)
    (x61 Real)
    (x62 Real)
    (x63 Real)
    (x64 Real)
    (x65 Real)
    (x66 Real)
    (x67 Real)
    (x68 Real)
    (x69 Real)
    (x70 Real)
    (x71 Real)
    (x72 Real)
    (x73 Real)
    (x74 Real)
    (x75 Real)
    (x76 Real)
    (x77 Real)
    (x78 Real)
    (x79 Real)
    (x80 Real)
    (x81 Real)
    (x82 Real)
    (x83 Real)
    (x84 Real)
    (x85 Real)
    (x86 Real)
    (x87 Real)
    (x88 Real)
    (x89 Real)
    (x90 Real)
    (x91 Real)
    (x92 Real)
    (x93 Real)
    (x94 Real)
    (x95 Real)
    (x96 Real)
    (x97 Real)
    (x98 Real)
    (x99 Real)
    )
    ((y Real))
        (and
            (>= x0 y)
            (>= x1 y)
            (>= x2 y)
            (>= x3 y)
            (>= x4 y)
            (>= x5 y)
            (>= x6 y)
            (>= x7 y)
            (>= x8 y)
            (>= x9 y)
            (>= x10 y)
            (>= x11 y)
            (>= x12 y)
            (>= x13 y)
            (>= x14 y)
            (>= x15 y)
            (>= x16 y)
            (>= x17 y)
            (>= x18 y)
            (>= x19 y)
            (>= x20 y)
            (>= x21 y)
            (>= x22 y)
            (>= x23 y)
            (>= x24 y)
            (>= x25 y)
            (>= x26 y)
            (>= x27 y)
            (>= x28 y)
            (>= x29 y)         
            (>= x30 y)
            (>= x31 y)
            (>= x32 y)
            (>= x33 y)
            (>= x34 y)
            (>= x35 y)
            (>= x36 y)
            (>= x37 y)
            (>= x38 y)
            (>= x39 y)
            (>= x40 y)
            (>= x41 y)
            (>= x42 y)
            (>= x43 y)
            (>= x44 y)
            (>= x45 y)
            (>= x46 y)
            (>= x47 y)
            (>= x48 y)
            (>= x49 y)
            (>= x50 y)
            (>= x51 y)
            (>= x52 y)
            (>= x53 y)
            (>= x54 y)
            (>= x55 y)
            (>= x56 y)
            (>= x57 y)
            (>= x58 y)
            (>= x59 y)
            (>= x60 y)
            (>= x61 y)
            (>= x62 y)
            (>= x63 y)
            (>= x64 y)
            (>= x65 y)
            (>= x66 y)
            (>= x67 y)
            (>= x68 y)
            (>= x69 y)
            (>= x70 y)
            (>= x71 y)
            (>= x72 y)
            (>= x73 y)
            (>= x74 y)
            (>= x75 y)
            (>= x76 y)
            (>= x77 y)
            (>= x78 y)
            (>= x79 y)
            (>= x80 y)
            (>= x81 y)
            (>= x82 y)
            (>= x83 y)
            (>= x84 y)
            (>= x85 y)
            (>= x86 y)
            (>= x87 y)
            (>= x88 y)
            (>= x89 y)
            (>= x90 y)
            (>= x91 y)
            (>= x92 y)
            (>= x93 y)
            (>= x94 y)
            (>= x95 y)
            (>= x96 y)
            (>= x97 y)
            (>= x98 y)
            (>= x99 y)
))
